data;


param d:= 100;
param r:=5;
param p:=0.820000;
param M:=1000;
param U:=
         1         1       -6.104296e-01
         2         1       -7.502969e-01
         3         1        2.070690e-01
         4         1        4.958431e-01
         5         1       -1.637784e-01
         6         1       -7.918970e-01
         7         1       -7.047702e-01
         8         1       -8.722105e-01
         9         1       -2.214248e-01
        10         1       -1.533736e+00
        11         1        7.257608e-01
        12         1       -1.030104e+00
        13         1       -1.607747e-01
        14         1       -1.012728e+00
        15         1       -1.627090e-01
        16         1       -4.331012e-01
        17         1        9.571137e-02
        18         1        3.135795e-01
        19         1       -1.194268e+00
        20         1        1.415111e+00
        21         1       -9.194219e-01
        22         1        2.537037e+00
        23         1       -1.396542e+00
        24         1       -8.320688e-01
        25         1       -1.819137e-01
        26         1        1.326456e+00
        27         1       -1.643948e+00
        28         1       -1.193772e+00
        29         1        9.334237e-01
        30         1       -6.476397e-01
        31         1        4.528201e-03
        32         1        1.282918e+00
        33         1       -7.996181e-01
        34         1        8.997658e-01
        35         1        2.053030e+00
        36         1        7.651445e-01
        37         1       -3.260696e-01
        38         1       -1.070196e+00
        39         1        1.931008e+00
        40         1        1.782657e-01
        41         1       -1.074249e+00
        42         1        1.832480e+00
        43         1        2.600583e-01
        44         1        8.086635e-01
        45         1       -9.902113e-01
        46         1       -1.323331e+00
        47         1        2.091909e+00
        48         1       -4.240585e-02
        49         1       -9.410566e-01
        50         1        8.965735e-01
        51         1        1.121284e+00
        52         1       -3.789808e-01
        53         1       -1.872895e-01
        54         1       -1.808384e-01
        55         1        1.293379e+00
        56         1       -5.358307e-01
        57         1        5.930103e-02
        58         1        2.200003e-01
        59         1        1.214992e+00
        60         1        8.659400e-02
        61         1       -5.924199e-01
        62         1       -1.617926e+00
        63         1        1.398554e-01
        64         1        1.190068e+00
        65         1        6.951654e-01
        66         1       -5.931352e-01
        67         1        1.404736e-01
        68         1       -9.206925e-01
        69         1        6.024435e-01
        70         1        5.521664e-01
        71         1        2.526301e+00
        72         1        1.342292e+00
        73         1       -2.068356e+00
        74         1       -4.259834e-01
        75         1        3.466749e-01
        76         1        8.868528e-01
        77         1       -1.822206e+00
        78         1        1.238738e+00
        79         1        8.893405e-01
        80         1       -1.216721e-01
        81         1        7.744610e-01
        82         1       -2.149005e+00
        83         1       -1.080571e+00
        84         1        5.294830e-01
        85         1       -6.009542e-01
        86         1        1.182430e-01
        87         1        3.910848e-01
        88         1       -2.509713e-01
        89         1        1.039819e+00
        90         1       -1.198316e+00
        91         1       -1.252235e-01
        92         1       -2.241653e+00
        93         1       -2.297092e+00
        94         1        9.845411e-01
        95         1       -2.546933e-01
        96         1        6.015366e-01
        97         1        2.214261e+00
        98         1       -4.959897e-01
        99         1        4.701486e-01
       100         1        1.742359e-01
         1         2        2.063362e+00
         2         2        1.621753e+00
         3         2       -1.019473e+00
         4         2       -1.224716e+00
         5         2       -9.597669e-01
         6         2        8.014851e-01
         7         2        1.722055e+00
         8         2        7.972568e-02
         9         2        1.277720e+00
        10         2        1.021940e-01
        11         2       -9.534837e-01
        12         2        9.877198e-03
        13         2       -7.581056e-01
        14         2       -5.055257e-01
        15         2        1.604375e+00
        16         2        8.638053e-01
        17         2       -1.551971e+00
        18         2       -7.802237e-01
        19         2       -1.370965e+00
        20         2       -7.144719e-01
        21         2       -4.285315e-01
        22         2        1.420917e+00
        23         2       -2.045085e-01
        24         2       -1.166119e+00
        25         2        7.652194e-01
        26         2        1.324585e+00
        27         2        8.734102e-01
        28         2        8.236897e-02
        29         2       -9.749682e-01
        30         2       -7.952723e-01
        31         2       -1.597526e+00
        32         2        8.237804e-01
        33         2       -4.088885e-01
        34         2        9.906910e-01
        35         2        1.990197e-01
        36         2       -1.142103e+00
        37         2        1.063401e+00
        38         2        1.240846e+00
        39         2        9.043520e-01
        40         2        1.289743e-01
        41         2       -7.094934e-01
        42         2        2.104362e+00
        43         2       -1.029595e+00
        44         2       -1.420221e+00
        45         2        2.594400e-01
        46         2       -1.231781e+00
        47         2        1.515122e-01
        48         2       -8.745939e-01
        49         2       -5.692955e-01
        50         2       -2.150491e-01
        51         2        1.034260e+00
        52         2       -5.995995e-01
        53         2       -1.800878e+00
        54         2       -1.146872e+00
        55         2        6.270190e-01
        56         2       -1.368207e+00
        57         2        5.172976e-01
        58         2       -1.889856e-01
        59         2       -4.939752e-01
        60         2       -4.853940e-01
        61         2        1.468432e+00
        62         2        2.064459e+00
        63         2       -9.978925e-01
        64         2       -8.071059e-02
        65         2        1.228003e+00
        66         2        3.243929e-01
        67         2        3.621302e-01
        68         2       -3.385675e-01
        69         2       -3.703773e-01
        70         2        1.766408e-01
        71         2        5.736052e-01
        72         2        1.886984e+00
        73         2        3.020436e-01
        74         2       -2.033064e+00
        75         2       -8.387270e-01
        76         2        2.583293e-01
        77         2        1.171507e+00
        78         2       -5.738434e-01
        79         2        2.736282e-01
        80         2       -6.379404e-01
        81         2        4.635532e-01
        82         2        6.476728e-01
        83         2       -1.348518e+00
        84         2        7.330379e-01
        85         2       -1.288684e+00
        86         2       -8.189844e-01
        87         2        1.583542e+00
        88         2       -9.425405e-02
        89         2        6.934638e-01
        90         2        4.181640e-01
        91         2        8.293624e-01
        92         2       -1.068550e-01
        93         2        4.277662e-01
        94         2       -8.668459e-02
        95         2       -8.334016e-01
        96         2       -1.612144e+00
        97         2       -1.224874e+00
        98         2        7.231496e-01
        99         2       -1.783882e+00
       100         2       -1.595110e+00
         1         3        6.255895e-01
         2         3       -9.502035e-01
         3         3        4.157527e-01
         4         3       -1.775097e-01
         5         3       -1.812387e-01
         6         3        8.095722e-01
         7         3        1.660738e-01
         8         3       -1.420776e+00
         9         3       -6.718637e-01
        10         3        2.312517e-02
        11         3       -7.759747e-01
        12         3       -3.284747e-01
        13         3        2.350058e-01
        14         3        6.869248e-01
        15         3       -4.345009e-01
        16         3       -9.385145e-01
        17         3       -6.550180e-01
        18         3       -9.076151e-01
        19         3        2.131791e-01
        20         3       -2.847487e-01
        21         3        1.719432e+00
        22         3       -6.487634e-01
        23         3        2.052610e+00
        24         3        9.380359e-02
        25         3       -1.169549e-01
        26         3        3.684878e-01
        27         3        8.405642e-01
        28         3       -3.701383e-01
        29         3       -2.357183e+00
        30         3       -1.066236e+00
        31         3        1.459794e-01
        32         3       -2.938604e-02
        33         3        1.362831e-01
        34         3        3.303331e-01
        35         3        6.573029e-01
        36         3       -2.786037e-01
        37         3        8.128555e-02
        38         3        1.045105e+00
        39         3       -2.923467e-01
        40         3        1.221912e-01
        41         3        1.902548e+00
        42         3       -3.751754e-01
        43         3        1.637342e+00
        44         3        7.951780e-01
        45         3        1.067446e+00
        46         3       -9.416207e-02
        47         3       -6.015247e-01
        48         3       -2.972465e-01
        49         3        1.157073e+00
        50         3       -1.910693e+00
        51         3        8.012195e-01
        52         3       -1.445954e-01
        53         3        6.246420e-01
        54         3        1.783945e+00
        55         3        3.757710e-01
        56         3        6.295536e-01
        57         3        3.338074e-03
        58         3        7.599869e-01
        59         3        5.297933e-01
        60         3        9.235997e-01
        61         3       -2.577874e-01
        62         3        6.331687e-01
        63         3       -6.347790e-01
        64         3       -7.897722e-01
        65         3        1.543034e+00
        66         3        3.554383e-01
        67         3        6.456622e-01
        68         3        1.013378e+00
        69         3       -1.437300e-01
        70         3        1.557249e-01
        71         3       -1.347950e+00
        72         3        1.248645e+00
        73         3        1.023303e+00
        74         3       -1.244712e+00
        75         3       -3.709902e-01
        76         3        3.535186e-02
        77         3       -1.241503e+00
        78         3       -9.077163e-01
        79         3       -2.565019e+00
        80         3        2.049598e-01
        81         3        4.902341e-01
        82         3        7.335097e-01
        83         3        3.962073e-01
        84         3       -5.495864e-01
        85         3        1.705377e+00
        86         3        7.406154e-01
        87         3       -3.319961e+00
        88         3        5.956122e-01
        89         3       -5.722316e-01
        90         3        3.327231e-01
        91         3       -1.782359e+00
        92         3       -2.592544e-01
        93         3       -1.396467e+00
        94         3       -1.069381e-01
        95         3       -7.817199e-01
        96         3       -1.392730e+00
        97         3       -5.486370e-01
        98         3       -1.827907e+00
        99         3       -1.399453e-01
       100         3       -2.444575e-01
         1         4        9.628619e-01
         2         4       -1.407839e-01
         3         4        1.887026e+00
         4         4       -9.478119e-01
         5         4        1.113999e+00
         6         4       -1.228041e+00
         7         4       -2.471797e-01
         8         4        9.933596e-02
         9         4       -1.337086e+00
        10         4        1.430559e+00
        11         4       -4.096573e-02
        12         4       -1.775243e+00
        13         4       -8.200378e-01
        14         4        9.037834e-01
        15         4       -1.261571e+00
        16         4       -2.310306e-02
        17         4        1.731097e+00
        18         4        7.435340e-01
        19         4        1.495626e-01
        20         4        7.651372e-01
        21         4        1.967523e+00
        22         4        8.688439e-01
        23         4       -1.565853e-01
        24         4        2.433938e-01
        25         4        9.147535e-01
        26         4       -1.443476e+00
        27         4       -8.448993e-01
        28         4       -1.711903e+00
        29         4        1.772143e+00
        30         4       -6.550390e-01
        31         4       -1.060852e+00
        32         4       -8.181104e-01
        33         4       -6.272836e-01
        34         4        9.206285e-01
        35         4        6.344198e-01
        36         4       -4.106916e-01
        37         4       -1.372874e+00
        38         4       -6.651424e-02
        39         4        3.247818e-01
        40         4       -1.187075e+00
        41         4       -1.067872e+00
        42         4        1.114284e+00
        43         4        6.260949e-01
        44         4       -7.900231e-02
        45         4        4.109543e-01
        46         4        1.566891e+00
        47         4       -4.514772e-01
        48         4       -7.201868e-01
        49         4        1.710622e+00
        50         4       -4.625738e-01
        51         4        1.425621e+00
        52         4       -1.064255e+00
        53         4        1.414399e+00
        54         4       -1.142747e+00
        55         4       -4.530740e-01
        56         4        4.528846e-02
        57         4        9.418866e-02
        58         4        6.044840e-01
        59         4       -2.253465e-01
        60         4        2.286007e+00
        61         4        7.114192e-01
        62         4       -4.165673e-01
        63         4       -2.583538e-01
        64         4        1.281602e-01
        65         4       -5.884952e-01
        66         4       -1.622854e+00
        67         4        1.169752e+00
        68         4        2.403599e-01
        69         4        1.702438e-01
        70         4       -1.376262e+00
        71         4        1.001973e+00
        72         4       -2.344934e+00
        73         4       -1.073429e+00
        74         4       -5.490667e-02
        75         4        9.235286e-01
        76         4       -1.398871e+00
        77         4        1.387385e-01
        78         4        4.148904e-01
        79         4        9.326200e-01
        80         4        2.292708e-01
        81         4        9.925991e-01
        82         4       -1.277269e+00
        83         4        7.422530e-02
        84         4        1.116237e+00
        85         4       -1.443487e+00
        86         4        2.487499e+00
        87         4        7.415410e-01
        88         4       -3.211627e-01
        89         4        1.041016e+00
        90         4       -8.641861e-01
        91         4        1.323457e-01
        92         4       -5.481533e-01
        93         4       -6.556840e-01
        94         4        4.924412e-02
        95         4       -4.005608e-01
        96         4        8.345929e-02
        97         4       -8.393980e-02
        98         4       -9.537894e-01
        99         4       -9.792956e-01
       100         4        1.348117e+00
         1         5       -6.932582e-01
         2         5        9.522862e-01
         3         5        1.326900e+00
         4         5       -4.757780e-01
         5         5       -2.821618e+00
         6         5       -4.541729e-01
         7         5       -1.150760e+00
         8         5        7.634479e-01
         9         5        4.079196e-01
        10         5        4.864454e-01
        11         5       -6.805162e-02
        12         5        2.671148e-01
        13         5        2.850553e-01
        14         5        1.010350e+00
        15         5       -1.242132e-01
        16         5       -8.818302e-02
        17         5        1.678956e-01
        18         5       -4.030372e-01
        19         5        3.467386e-01
        20         5        2.314014e+00
        21         5        1.421782e-02
        22         5       -2.690477e-01
        23         5       -6.677344e-02
        24         5        1.112961e-01
        25         5       -1.552418e+00
        26         5       -3.395706e-01
        27         5       -2.470817e-01
        28         5        4.423336e-01
        29         5       -1.735079e-01
        30         5        1.863449e+00
        31         5        1.780974e-01
        32         5        4.122444e-01
        33         5       -9.313793e-01
        34         5        1.209826e-01
        35         5        5.076102e-01
        36         5        5.958281e-01
        37         5        1.329930e+00
        38         5        1.547829e+00
        39         5       -9.479957e-02
        40         5       -1.502709e+00
        41         5       -5.563189e-01
        42         5       -4.870849e-01
        43         5        8.801829e-01
        44         5        9.346313e-01
        45         5        3.930518e-01
        46         5        2.966503e-02
        47         5        3.069718e-01
        48         5        8.747071e-01
        49         5       -8.613967e-01
        50         5       -1.923785e-01
        51         5       -6.073047e-01
        52         5        6.177825e-01
        53         5        1.600700e+00
        54         5        6.398673e-01
        55         5       -2.257620e-01
        56         5        4.571412e-01
        57         5        1.526701e-01
        58         5        5.790606e-02
        59         5        6.019888e-01
        60         5        2.011077e-01
        61         5       -6.744162e-01
        62         5        7.071277e-01
        63         5        7.610804e-01
        64         5       -1.306088e-01
        65         5       -6.537449e-01
        66         5        4.783559e-01
        67         5       -1.840849e-01
        68         5       -5.776431e-01
        69         5        5.623217e-01
        70         5        1.099243e+00
        71         5       -1.179424e+00
        72         5       -7.891370e-01
        73         5       -1.726853e+00
        74         5       -2.204129e-02
        75         5       -2.501034e+00
        76         5       -2.290608e-01
        77         5        2.465795e-01
        78         5        9.271135e-02
        79         5       -1.162190e+00
        80         5       -1.357961e+00
        81         5       -4.423398e-02
        82         5       -1.862368e+00
        83         5        5.426200e-01
        84         5        1.204531e+00
        85         5       -1.409023e+00
        86         5       -9.968118e-01
        87         5       -1.869706e+00
        88         5       -8.852416e-01
        89         5       -7.437351e-01
        90         5       -5.138813e-01
        91         5       -7.585106e-02
        92         5       -3.797534e-01
        93         5       -1.925594e+00
        94         5        9.839932e-01
        95         5        6.265070e-01
        96         5        1.064029e+00
        97         5       -1.145818e+00
        98         5       -5.491072e-01
        99         5       -1.702920e-02
       100         5        1.430898e-01
;

param theta:=
    1        1.064676e+00
    2        1.144925e+00
    3        9.777495e-01
    4       -2.256115e+00
    5       -3.680886e-01
;
param X_true:=
    1        4.006834e-01
    2        1.961902e-01
    3       -5.279296e+00
    4        1.237276e+00
    5       -2.895610e+00
    6        3.942361e+00
    7        2.476173e+00
    8       -2.655546e+00
    9        3.656701e+00
   10       -4.999522e+00
   11       -9.725049e-01
   12        2.437760e+00
   13        7.331840e-01
   14       -3.289938e+00
   15        4.268092e+00
   16       -2.957594e-01
   17       -6.371316e+00
   18       -2.924994e+00
   19       -3.093514e+00
   20       -2.082268e+00
   21       -4.390342e+00
   22        1.819022e+00
   23        6.996632e-01
   24       -2.762007e+00
   25       -1.083693e+00
   26        6.703842e+00
   27        2.180622e+00
   28        2.106737e+00
   29       -6.465905e+00
   30       -1.774216e+00
   31        7.424436e-01
   32        3.785068e+00
   33        5.170244e-01
   34        4.874184e-01
   35        1.433737e+00
   36       -1.638557e-01
   37        3.443997e+00
   38        9.764166e-01
   39        2.058354e+00
   40        3.689936e+00
   41        2.511490e+00
   42        1.626555e+00
   43       -9.766963e-01
   44       -2.362522e-01
   45       -7.908870e-01
   46       -6.575380e+00
   47        2.541175e+00
   48        1.552306e-01
   49       -3.899498e+00
   50        8.883924e-03
   51        2.007355e-01
   52        8.204482e-01
   53       -5.370283e+00
   54        2.651916e+00
   55        3.603407e+00
   56       -1.826439e+00
   57        3.674236e-01
   58       -7.408878e-01
   59        1.386533e+00
   60       -4.796768e+00
   61       -6.015312e-01
   62        1.868003e+00
   63       -1.306170e+00
   64        3.036491e-01
   65        5.346072e+00
   66        3.535193e+00
   67       -1.481512e+00
   68       -8.191956e-01
   69       -6.306309e-01
   70        3.808504e+00
   71        8.448306e-02
   72        1.037894e+01
   73        2.354343e+00
   74       -4.066170e+00
   75       -2.163911e+00
   76        4.428752e+00
   77       -2.197947e+00
   78       -1.108654e+00
   79       -2.740506e+00
   80       -5.361710e-01
   81       -4.996305e-01
   82        2.585891e+00
   83       -2.698433e+00
   84       -2.140168e+00
   85        3.359586e+00
   86       -5.265539e+00
   87       -1.867542e+00
   88        1.276989e+00
   89       -8.036602e-01
   90        1.820755e+00
   91       -1.287687e+00
   92       -1.383663e+00
   93       -1.108980e+00
   94        2.255889e-01
   95       -1.350410e+00
   96       -3.045730e+00
   97        1.017220e+00
   98        7.080476e-01
   99        4.166309e-01
  100       -4.860438e+00
;
param X:=
    1        1.069790e-01
    2       -9.200151e-01
    3        2.743337e-01
    4        9.991916e-01
    5       -2.895610e+00
    6       -6.088240e-01
    7       -2.813698e-01
    8       -2.655546e+00
    9       -3.746315e-01
   10       -8.008233e-01
   11        8.620489e-01
   12        9.319219e-01
   13       -7.393723e-01
   14        1.422430e+00
   15       -7.220286e-01
   16        5.235195e-01
   17        1.187004e+00
   18       -2.924994e+00
   19        2.122329e+00
   20       -2.082268e+00
   21       -5.051890e-01
   22       -3.148194e-01
   23        1.239668e+00
   24        2.070617e+00
   25       -6.538856e-01
   26        1.403916e+00
   27        2.559605e-01
   28        1.490426e+00
   29        4.965512e-01
   30       -2.054185e+00
   31        1.007358e+00
   32        3.785068e+00
   33        1.599909e+00
   34       -2.110266e-02
   35       -1.548261e+00
   36       -1.462365e+00
   37       -8.373951e-02
   38        3.242080e-02
   39        2.058354e+00
   40       -1.892873e-01
   41        1.467640e+00
   42        1.626555e+00
   43        2.777965e+00
   44       -7.131300e-01
   45        9.075890e-01
   46        1.329803e+00
   47       -1.224000e+00
   48       -9.143792e-02
   49       -1.512834e+00
   50        8.883924e-03
   51        2.007355e-01
   52        8.204482e-01
   53       -7.508859e-01
   54       -3.294194e-01
   55        3.603407e+00
   56        1.673476e+00
   57        3.674236e-01
   58        1.970197e+00
   59        8.586869e-01
   60       -4.796768e+00
   61        1.816655e+00
   62       -7.785807e-02
   63       -5.354295e-01
   64       -6.007025e-01
   65       -1.411990e-01
   66        1.484631e+00
   67        1.089407e+00
   68       -8.191956e-01
   69       -6.306309e-01
   70       -1.534215e+00
   71        4.828350e-01
   72        7.408103e-01
   73       -6.220494e-01
   74       -2.765496e-01
   75       -2.163911e+00
   76       -1.546105e+00
   77        9.352758e-01
   78        7.864792e-01
   79       -2.740506e+00
   80       -5.413784e-01
   81       -1.673366e-01
   82       -1.371713e-01
   83       -1.978932e+00
   84        3.315758e-01
   85       -4.005349e-01
   86        1.724811e-01
   87       -3.346970e-01
   88        9.627058e-01
   89       -2.374481e-02
   90        1.820755e+00
   91        3.660052e-01
   92       -2.615194e-01
   93        1.503385e+00
   94        5.006458e-01
   95       -3.212059e-01
   96        4.472199e-01
   97        1.078244e+00
   98       -3.310965e-02
   99        7.265116e-01
  100       -5.236754e-01
;
param outliervec:=
    1    1
    2    1
    3    1
    4    1
    5    0
    6    1
    7    1
    8    0
    9    1
   10    1
   11    1
   12    1
   13    1
   14    1
   15    1
   16    1
   17    1
   18    0
   19    1
   20    0
   21    1
   22    1
   23    1
   24    1
   25    1
   26    1
   27    1
   28    1
   29    1
   30    1
   31    1
   32    0
   33    1
   34    1
   35    1
   36    1
   37    1
   38    1
   39    0
   40    1
   41    1
   42    0
   43    1
   44    1
   45    1
   46    1
   47    1
   48    1
   49    1
   50    0
   51    0
   52    0
   53    1
   54    1
   55    0
   56    1
   57    0
   58    1
   59    1
   60    0
   61    1
   62    1
   63    1
   64    1
   65    1
   66    1
   67    1
   68    0
   69    0
   70    1
   71    1
   72    1
   73    1
   74    1
   75    0
   76    1
   77    1
   78    1
   79    0
   80    1
   81    1
   82    1
   83    1
   84    1
   85    1
   86    1
   87    1
   88    1
   89    1
   90    0
   91    1
   92    1
   93    1
   94    1
   95    1
   96    1
   97    1
   98    1
   99    1
  100    1
;